53298 -1 29119 237212 54482 1
53348 -1 35351 270750 55498 0.98
53600 -1 24893 211544 55502 1
53400 -1 26481 207612 54852 0.98
53412 -1 57353 446680 55074 1
52956 -1 41080 299530 55428 1
53556 -1 32216 275283 56000 0.96
53336 -1 23400 198269 55942 0.98
53568 -1 27119 226248 56448 1
53454 -1 29495 231070 54778 0.98
